Problem:    
Rows:       260
Columns:    89 (72 integer, 72 binary)
Non-zeros:  974
Status:     INTEGER OPTIMAL
Objective:  value = 44.697864 (MINimum)

   No.   Row name        Activity     Lower bound   Upper bound
------ ------------    ------------- ------------- -------------
     1 r.5                    1044.7             0               
     2 r.6                   -980.52      -983.963               
     3 r.7                   44.6979             0               
     4 r.8                   22.9883      -986.907               
     5 r.9                   44.6979             0               
     6 r.10                 -980.562      -984.005               
     7 r.11                   1044.7             0               
     8 r.12                 -967.264      -986.055               
     9 r.13                  44.6979             0               
    10 r.14                 -995.739      -999.183               
    11 r.15                   1044.7             0               
    12 r.16                 -982.881      -998.048               
    13 r.17                  44.6979             0               
    14 r.18                  32.7355      -998.275               
    15 r.19                   1044.7             0               
    16 r.20                 -984.833      -997.142               
    17 r.21                  44.6979             0               
    18 r.22                  23.1547      -992.282               
    19 r.23                   1044.7             0               
    20 r.24                 -989.362      -993.405               
    21 r.25                  44.6979             0               
    22 r.26                  5.28055      -999.377               
    23 r.27                   1044.7             0               
    24 r.28                 -998.228      -998.228               
    25 r.29                  44.6979             0               
    26 r.30                  44.6979       -976.28               
    27 r.31                   1044.7             0               
    28 r.32                 -955.302      -988.038               
    29 r.33                   1044.7             0               
    30 r.34                 -955.302      -976.619               
    31 r.35                  44.6979             0               
    32 r.36                  44.6979      -988.613               
    33 r.37                        1             1             = 
    34 r.38                        1             1             = 
    35 r.39                        1             1             = 
    36 r.40                        1             1             = 
    37 r.41                        1             1             = 
    38 r.42                        1             1             = 
    39 r.43                        1             1             = 
    40 r.44                        1             1             = 
    41 r.45                     1001             2               
    42 r.46                    -1001         -1001               
    43 r.47                  998.121      -984.005               
    44 r.48                     1001             2               
    45 r.49                    -1001         -1001               
    46 r.50                  2011.42      -986.055               
    47 r.51                     1001             2               
    48 r.52                    -1001         -1001               
    49 r.53                  982.943      -999.183               
    50 r.54                     1001             2               
    51 r.55                    -1001         -1001               
    52 r.56                   1995.8      -998.048               
    53 r.57                     1001             2               
    54 r.58                    -1001         -1001               
    55 r.59                  2011.42      -998.275               
    56 r.60                     1001             2               
    57 r.61                    -1001         -1001               
    58 r.62                  1993.85      -997.142               
    59 r.63                     1001             2               
    60 r.64                    -1001         -1001               
    61 r.65                  2001.84      -992.282               
    62 r.66                     1001             2               
    63 r.67                    -1001         -1001               
    64 r.68                  1989.32      -993.405               
    65 r.69                 -983.963      -983.963               
    66 r.70                  19.5453      -986.907               
    67 r.71                 -983.963      -983.963               
    68 r.72                  19.5453      -986.907               
    69 r.73                  23.3807       -976.28               
    70 r.74                 -976.619      -988.038               
    71 r.75                  23.3807       -976.28               
    72 r.76                 -976.619      -988.038               
    73 r.77                 -976.619      -976.619               
    74 r.78                  23.3807      -988.613               
    75 r.79                 -976.619      -976.619               
    76 r.80                  23.3807      -988.613               
    77 r.81                     1001             2               
    78 r.82                    -1001         -1001               
    79 r.83                  3000.04       16.0366               
    80 r.84                     1001             2               
    81 r.85                    -1001         -1001               
    82 r.86                  1990.25       13.0929               
    83 r.87                     1000             2               
    84 r.88                    -1000         -1001               
    85 r.89                  1984.82      -999.183               
    86 r.90                        2             2               
    87 r.91                       -2         -1001               
    88 r.92                 -15.6164      -998.048               
    89 r.93                     1000             2               
    90 r.94                    -1000         -1001               
    91 r.95                   3013.3      -998.275               
    92 r.96                        2             2               
    93 r.97                       -2         -1001               
    94 r.98                 -17.5684      -997.142               
    95 r.99                     1000             2               
    96 r.100                   -1000         -1001               
    97 r.101                 3003.72      -992.282               
    98 r.102                       2             2               
    99 r.103                      -2         -1001               
   100 r.104                -22.0973      -993.405               
   101 r.105                -984.005      -984.005               
   102 r.106                -970.707      -986.055               
   103 r.107                -984.005      -984.005               
   104 r.108                -970.707      -986.055               
   105 r.109                 1025.26       -976.28               
   106 r.110                 25.2599      -988.038               
   107 r.111                 11.9623       -976.28               
   108 r.112                -988.038      -988.038               
   109 r.113                    1001             2               
   110 r.114                   -1001         -1001               
   111 r.115                 3025.26      -976.619               
   112 r.116                    1001             2               
   113 r.117                   -1001         -1001               
   114 r.118                 2011.96      -988.613               
   115 r.119                    1001             2               
   116 r.120                   -1001         -1001               
   117 r.121                 3017.06       16.0366               
   118 r.122                    1001             2               
   119 r.123                   -1001         -1001               
   120 r.124                  2004.2       13.0929               
   121 r.125                    1000             2               
   122 r.126                   -1000         -1001               
   123 r.127                 2017.01       15.9949               
   124 r.128                       2             2               
   125 r.129                      -2         -1001               
   126 r.130                 13.9452       13.9452               
   127 r.131                    1000             2               
   128 r.132                   -1000         -1001               
   129 r.133                 3030.31      -998.275               
   130 r.134                       2             2               
   131 r.135                      -2         -1001               
   132 r.136                -3.62311      -997.142               
   133 r.137                    1000             2               
   134 r.138                   -1000         -1001               
   135 r.139                 3020.73      -992.282               
   136 r.140                       2             2               
   137 r.141                      -2         -1001               
   138 r.142                 -8.1521      -993.405               
   139 r.143                -999.182      -999.183               
   140 r.144                -986.324      -998.048               
   141 r.145                -999.182      -999.183               
   142 r.146                -986.324      -998.048               
   143 r.147                 1042.27       -976.28               
   144 r.148                 42.2749      -988.038               
   145 r.149                 25.9076       -976.28               
   146 r.150                -974.092      -988.038               
   147 r.151                 42.2749      -976.619               
   148 r.152                 1042.27      -988.613               
   149 r.153                -974.092      -976.619               
   150 r.154                 25.9076      -988.613               
   151 r.155                    1001             2               
   152 r.156                   -1001         -1001               
   153 r.157                 1986.74       16.0366               
   154 r.158                    1001             2               
   155 r.159                   -1001         -1001               
   156 r.160                 2007.82       13.0929               
   157 r.161                    1000             2               
   158 r.162                   -1000         -1001               
   159 r.163                 986.702       15.9949               
   160 r.164                       2             2               
   161 r.165                      -2         -1001               
   162 r.166                 17.5684       13.9452               
   163 r.167                    1000             2               
   164 r.168                   -1000         -1001               
   165 r.169                 971.525        0.8175               
   166 r.170                       2             2               
   167 r.171                      -2         -1001               
   168 r.172                 1.95199       1.95199               
   169 r.173                    1000             2               
   170 r.174                   -1000         -1001               
   171 r.175                 1990.42      -992.282               
   172 r.176                       2             2               
   173 r.177                      -2         -1001               
   174 r.178                -4.52899      -993.405               
   175 r.179                 29.2925      -998.275               
   176 r.180                -988.276      -997.142               
   177 r.181                 29.2925      -998.275               
   178 r.182                -988.276      -997.142               
   179 r.183                 11.9623       -976.28               
   180 r.184                -988.038      -988.038               
   181 r.185                 29.5307       -976.28               
   182 r.186                -970.469      -988.038               
   183 r.187                    1001             2               
   184 r.188                   -1001         -1001               
   185 r.189                 2011.96      -976.619               
   186 r.190                    1001             2               
   187 r.191                   -1001         -1001               
   188 r.192                 2029.53      -988.613               
   189 r.193                    1001             2               
   190 r.194                   -1001         -1001               
   191 r.195                 1998.16       16.0366               
   192 r.196                    1001             2               
   193 r.197                   -1001         -1001               
   194 r.198                 2010.68       13.0929               
   195 r.199                    1000             2               
   196 r.200                   -1000         -1001               
   197 r.201                 998.121       15.9949               
   198 r.202                       2             2               
   199 r.203                      -2         -1001               
   200 r.204                 20.4262       13.9452               
   201 r.205                    1000             2               
   202 r.206                   -1000         -1001               
   203 r.207                 982.943        0.8175               
   204 r.208                       2             2               
   205 r.209                      -2         -1001               
   206 r.210                 4.80984       1.95199               
   207 r.211                    1000             2               
   208 r.212                   -1000         -1001               
   209 r.213                 2011.42       1.72504               
   210 r.214                       2             2               
   211 r.215                      -2         -1001               
   212 r.216                 2.85786       2.85786               
   213 r.217                 19.7117      -992.282               
   214 r.218                -992.805      -993.405               
   215 r.219                 19.7117      -992.282               
   216 r.220                -992.805      -993.405               
   217 r.221                    1000             2               
   218 r.222                   -1000         -1001               
   219 r.223                 2023.38       -976.28               
   220 r.224                       2             2               
   221 r.225                      -2         -1001               
   222 r.226                -967.611      -988.038               
   223 r.227                -976.619      -976.619               
   224 r.228                 23.3807      -988.613               
   225 r.229                -967.611      -976.619               
   226 r.230                 32.3885      -988.613               
   227 r.231                 41.2548       -976.28               
   228 r.232                -958.745      -988.038               
   229 r.233                 41.2548       -976.28               
   230 r.234                -958.745      -988.038               
   231 r.235                    1000             2               
   232 r.236                   -1000         -1001               
   233 r.237                 1978.46        7.7181               
   234 r.238                       2             2               
   235 r.239                      -2         -1001               
   236 r.240                  965.94        6.5945               
   237 r.241                    1001             2               
   238 r.242                   -1001         -1001               
   239 r.243                    2000      -976.619               
   240 r.244                    1001             2               
   241 r.245                   -1001         -1001               
   242 r.246                    2000      -988.613               
   243 r.247                    1001             2               
   244 r.248                   -1001         -1001               
   245 r.249                  974.74       15.9949               
   246 r.250                    1001             2               
   247 r.251                   -1001         -1001               
   248 r.252                 1988.04       13.9452               
   249 r.253                    1001             2               
   250 r.254                   -1001         -1001               
   251 r.255                 1988.04       1.72504               
   252 r.256                    1001             2               
   253 r.257                   -1001         -1001               
   254 r.258                 1970.47       2.85786               
   255 r.259                    1001             2               
   256 r.260                   -1001         -1001               
   257 r.261                    2000       23.7197               
   258 r.262                    1001             2               
   259 r.263                   -1001         -1001               
   260 r.264                    2000       11.9623               

   No. Column name       Activity     Lower bound   Upper bound
------ ------------    ------------- ------------- -------------
     1 tt                    44.6979             0               
     2 s_1_1        *              1             0             1 
     3 t_1_1                 23.3807             0               
     4 s_1_8        *              1             0             1 
     5 s_1_7        *              0             0             1 
     6 s_2_1        *              0             0             1 
     7 t_2_1                 23.3807             0               
     8 s_2_8        *              0             0             1 
     9 s_2_7        *              1             0             1 
    10 s_1_2        *              0             0             1 
    11 t_1_2                 1025.26             0               
    12 s_2_2        *              1             0             1 
    13 t_2_2                 11.9623             0               
    14 s_1_3        *              0             0             1 
    15 t_1_3                 1042.27             0               
    16 s_2_3        *              1             0             1 
    17 t_2_3                 25.9076             0               
    18 s_1_4        *              0             0             1 
    19 t_1_4                 11.9623             0               
    20 s_2_4        *              1             0             1 
    21 t_2_4                 29.5307             0               
    22 s_1_5        *              0             0             1 
    23 t_1_5                 23.3807             0               
    24 s_2_5        *              1             0             1 
    25 t_2_5                 32.3885             0               
    26 s_1_6        *              0             0             1 
    27 t_1_6                 41.2548             0               
    28 s_2_6        *              1             0             1 
    29 t_2_6                 41.2548             0               
    30 t_1_7                       0             0               
    31 t_2_7                       0             0               
    32 t_1_8                       0             0               
    33 t_2_8                       0             0               
    34 r_1_1_2      *              1             0             1 
    35 u_1_1_2      *              0             0             1 
    36 r_2_1_2      *              1             0             1 
    37 u_2_1_2      *              0             0             1 
    38 r_1_1_3      *              1             0             1 
    39 u_1_1_3      *              0             0             1 
    40 r_2_1_3      *              1             0             1 
    41 u_2_1_3      *              0             0             1 
    42 r_1_1_4      *              1             0             1 
    43 u_1_1_4      *              0             0             1 
    44 r_2_1_4      *              1             0             1 
    45 u_2_1_4      *              0             0             1 
    46 r_1_1_5      *              1             0             1 
    47 u_1_1_5      *              0             0             1 
    48 r_2_1_5      *              1             0             1 
    49 u_2_1_5      *              0             0             1 
    50 r_1_2_3      *              1             0             1 
    51 u_1_2_3      *              0             0             1 
    52 r_2_2_3      *              0             0             1 
    53 u_2_2_3      *              0             0             1 
    54 r_1_2_4      *              1             0             1 
    55 u_1_2_4      *              0             0             1 
    56 r_2_2_4      *              0             0             1 
    57 u_2_2_4      *              0             0             1 
    58 r_1_2_5      *              1             0             1 
    59 u_1_2_5      *              0             0             1 
    60 r_2_2_5      *              0             0             1 
    61 u_2_2_5      *              0             0             1 
    62 r_1_2_8      *              1             0             1 
    63 u_1_2_8      *              0             0             1 
    64 r_2_2_8      *              1             0             1 
    65 u_2_2_8      *              0             0             1 
    66 r_1_3_4      *              1             0             1 
    67 u_1_3_4      *              0             0             1 
    68 r_2_3_4      *              0             0             1 
    69 u_2_3_4      *              0             0             1 
    70 r_1_3_5      *              1             0             1 
    71 u_1_3_5      *              0             0             1 
    72 r_2_3_5      *              0             0             1 
    73 u_2_3_5      *              0             0             1 
    74 r_1_4_5      *              1             0             1 
    75 u_1_4_5      *              0             0             1 
    76 r_2_4_5      *              0             0             1 
    77 u_2_4_5      *              0             0             1 
    78 r_1_4_8      *              1             0             1 
    79 u_1_4_8      *              0             0             1 
    80 r_2_4_8      *              1             0             1 
    81 u_2_4_8      *              0             0             1 
    82 r_1_5_7      *              1             0             1 
    83 u_1_5_7      *              0             0             1 
    84 r_2_5_7      *              0             0             1 
    85 u_2_5_7      *              1             0             1 
    86 r_1_7_8      *              1             0             1 
    87 u_1_7_8      *              0             0             1 
    88 r_2_7_8      *              1             0             1 
    89 u_2_7_8      *              0             0             1 

Integer feasibility conditions:

KKT.PE: max.abs.err = 4.55e-13 on row 79
        max.rel.err = 1.11e-16 on row 2
        High quality

KKT.PB: max.abs.err = 6.21e-11 on row 168
        max.rel.err = 2.10e-11 on row 168
        High quality

End of output
